50
1000
489
489
486
484
478
475
463
460
460
452
447
447
436
432
432
429
427
426
420
419
382
369
367
356
341
336
329
324
311
304
302
283
283
274
271
271
267
262
261
258
243
236
225
223
218
203
202
200
186
186
